benchmarks/bfuzz0/300362429793331364910430123233393926.smt2
(set-logic QF_FP)
(declare-const x0 (_ FloatingPoint 8 24))
(declare-const x1 (_ FloatingPoint 8 24))
(declare-const x2 (_ FloatingPoint 8 24))
(declare-const x3 (_ FloatingPoint 8 24))
(declare-const x4 (_ FloatingPoint 8 24))
(declare-const x5 (_ FloatingPoint 8 24))
(assert (fp.leq (fp.neg (fp.sub RNE (fp.neg x2) (fp.sub RNE x2 x5))) (fp.sub RNE (fp.add RNE (fp.neg x4) (fp.sub RNE x5 x5)) (fp.mul RNE (fp.div RNE x2 x4) (fp.add RNE x3 x2)))))
(assert (fp.eq (fp.neg (fp.neg (fp.div RNE x1 x4))) (fp.div RNE (fp.sub RNE (fp.neg x5) (fp.add RNE x2 x0)) (fp.sub RNE (fp.neg x4) (fp.div RNE x3 x3)))))
(check-sat)
