db/data/300362429793331364910430123233393926.z3.out
sat
-------------------
38.725767735
